Route #1: 1 1 7 9 10 2 11 6 4 5 1 
Route #2: 1 14 62 56 58 63 44 43 42 59 69 67 1 
Route #3: 1 3 12 28 26 54 50 38 49 48 34 1 
Route #4: 1 24 18 19 74 23 53 60 35 68 45 65 22 20 13 17 16 1 
Route #5: 1 8 27 21 25 57 47 33 29 61 51 1 
Route #6: 1 66 52 64 36 46 31 32 41 1 
Route #7: 1 15 73 72 70 40 1 
Route #8: 1 30 37 55 1 
Route #9: 1 39 71 1 
Route #10: 1 75 1 

Cost 3142.71
Time 0.6562


 * Another infos *

 Iterations: 76 Time: 0.6562 sec - 0.0109 min - 0.0002 horas
0.0000 h 0.0109 min
Problem dimension: 76
